300
200
140
140
139
139
139
139
138
138
138
138
137
137
137
136
135
135
135
135
134
134
133
133
133
132
132
131
130
129
129
129
128
127
126
126
126
126
124
124
122
122
122
122
122
122
122
121
121
121
120
120
120
120
120
119
118
118
118
117
116
116
116
115
115
115
114
114
113
113
112
112
111
109
109
109
108
107
107
107
107
106
105
105
105
105
104
104
104
104
104
103
103
103
102
101
101
101
101
100
99
99
99
97
97
97
96
96
95
95
95
95
94
94
92
92
92
92
92
91
91
89
89
89
89
88
88
87
87
86
86
86
86
86
86
85
85
84
84
83
83
82
81
81
80
80
80
79
78
78
77
75
75
75
74
73
73
73
72
71
71
71
70
69
68
68
68
67
66
66
66
64
64
63
63
62
62
62
62
61
61
61
60
60
60
59
59
59
59
58
57
57
57
57
56
56
56
56
55
55
54
54
54
54
53
53
53
53
53
52
52
51
51
51
50
48
48
47
47
47
47
47
46
46
46
46
46
46
45
44
43
43
42
42
42
42
41
41
41
41
40
40
40
40
39
39
39
38
37
37
37
37
36
36
36
35
34
34
34
34
34
34
34
34
34
33
32
32
32
32
31
31
30
29
29
28
27
27
27
26
26
25
25
25
24
24
24
24
24
23
23
22
22
22
22
21
21
21
20
20
20
20
